10
0 52 142 877 304 318 13 110 155 582
52 0 91 191 751 720 71 39 356 540
142 91 0 7 288 88 2 97 1 420
877 191 7 0 568 12 31 368 140 222
304 751 288 568 0 594 101 600 158 99
318 720 88 12 594 0 26 366 95 626
13 71 2 31 101 26 0 106 640 42
110 39 97 368 600 366 106 0 325 328
155 356 1 140 158 95 640 325 0 146
582 540 420 222 99 626 42 328 146 0